113593.17 0
0 1 412 413 414 415 416 417 418 419 420 421 422 423 394 395 396 397 398 399 400 401 402 411 403 410 409 404 364 367 366 365 363 327 328 331 330 329 294 295 296 306 305 297 277 276 298 299 300 301 408 407 406 5 11 12 60 65 66 67 120 68 69 70 71 72 73 137 134 132 129 127 128 126 125 156 160 170 169 159 157 130 131 133 135 136 138 139 150 140 141 119 118 117 116 115 114 113 80 79 78 77 76 75 74 59 58 57 56 55 54 53 4 3 2 13 14 15 16 17 18 19 20 21 22 23 24 25 26 27 28 29 30 31 428 33 32 35 34 96 95 97 98 99 100 101 102 103 104 105 106 107 108 85 86 87 88 89 90 91 92 93 94 36 37 38 39 40 41 42 43 44 45 46 47 48 49 50 51 52 81 82 83 84 110 109 111 112 146 145 144 143 142 149 148 147 158 165 166 167 168 181 180 182 184 185 197 198 208 209 211 196 195 199 200 201 194 186 187 193 192 203 202 212 213 210 207 204 206 205 190 191 189 188 183 214 218 217 216 215 219 64 124 123 122 153 151 152 163 162 164 174 175 173 177 176 178 179 172 171 161 155 154 121 10 61 62 9 63 8 7 6 405 368 304 303 302 272 273 274 275 267 269 270 271 221 222 220 223 224 225 226 227 228 229 231 230 259 260 262 264 265 268 266 263 261 258 257 256 255 254 232 233 234 235 236 252 253 278 279 280 281 251 250 249 247 245 246 248 282 292 293 283 244 242 243 284 291 307 326 325 324 323 310 309 308 290 289 288 287 286 285 241 240 239 238 237 313 312 311 321 322 334 336 339 338 340 341 320 319 314 315 316 317 318 347 352 351 350 349 348 346 344 342 343 345 353 354 355 356 357 358 359 360 361 337 335 333 332 362 369 370 371 372 373 374 375 376 377 378 379 380 381 382 383 384 386 385 388 389 387 427 426 390 391 392 393 425 424 429 430 431 432 433 434 435 436 437 438